p cnf 224 538
1 0
11 12 0
-11 -12 0
13 14 0
-13 -14 0
-10 11 0
-10 13 0
10 -11 -13 0
15 16 0
-15 -16 0
-9 10 0
-9 15 0
9 -10 -15 0
-18 10 0
18 -10 0
19 -16 0
-19 16 0
-17 18 0
-17 19 0
17 -18 -19 0
8 -9 0
8 -17 0
-8 9 17 0
22 12 0
-22 -12 0
23 -14 0
-23 14 0
-21 22 0
-21 23 0
21 -22 -23 0
24 16 0
-24 -16 0
-20 21 0
-20 24 0
20 -21 -24 0
7 -8 0
7 -20 0
-7 8 20 0
27 -12 0
-27 12 0
28 14 0
-28 -14 0
-26 27 0
-26 28 0
26 -27 -28 0
29 16 0
-29 -16 0
-25 26 0
-25 29 0
25 -26 -29 0
6 -7 0
6 -25 0
-6 7 25 0
-31 21 0
31 -21 0
32 -16 0
-32 16 0
-30 31 0
-30 32 0
30 -31 -32 0
-5 6 0
-5 30 0
5 -6 -30 0
40 41 0
-40 -41 0
42 43 0
-42 -43 0
-39 40 0
-39 42 0
39 -40 -42 0
44 45 0
-44 -45 0
-38 39 0
-38 44 0
38 -39 -44 0
-47 39 0
47 -39 0
48 -45 0
-48 45 0
-46 47 0
-46 48 0
46 -47 -48 0
37 -38 0
37 -46 0
-37 38 46 0
51 41 0
-51 -41 0
52 -43 0
-52 43 0
-50 51 0
-50 52 0
50 -51 -52 0
53 45 0
-53 -45 0
-49 50 0
-49 53 0
49 -50 -53 0
36 -37 0
36 -49 0
-36 37 49 0
56 -41 0
-56 41 0
57 43 0
-57 -43 0
-55 56 0
-55 57 0
55 -56 -57 0
58 45 0
-58 -45 0
-54 55 0
-54 58 0
54 -55 -58 0
35 -36 0
35 -54 0
-35 36 54 0
-60 50 0
60 -50 0
61 -45 0
-61 45 0
-59 60 0
-59 61 0
59 -60 -61 0
-34 35 0
-34 59 0
34 -35 -59 0
-62 30 0
62 -30 0
-33 34 0
-33 62 0
33 -34 -62 0
4 -5 0
4 -33 0
-4 5 33 0
70 71 0
-70 -71 0
72 73 0
-72 -73 0
-69 70 0
-69 72 0
69 -70 -72 0
74 75 0
-74 -75 0
-68 69 0
-68 74 0
68 -69 -74 0
-77 69 0
77 -69 0
78 -75 0
-78 75 0
-76 77 0
-76 78 0
76 -77 -78 0
67 -68 0
67 -76 0
-67 68 76 0
81 71 0
-81 -71 0
82 -73 0
-82 73 0
-80 81 0
-80 82 0
80 -81 -82 0
83 75 0
-83 -75 0
-79 80 0
-79 83 0
79 -80 -83 0
66 -67 0
66 -79 0
-66 67 79 0
86 -71 0
-86 71 0
87 73 0
-87 -73 0
-85 86 0
-85 87 0
85 -86 -87 0
88 75 0
-88 -75 0
-84 85 0
-84 88 0
84 -85 -88 0
65 -66 0
65 -84 0
-65 66 84 0
-90 80 0
90 -80 0
91 -75 0
-91 75 0
-89 90 0
-89 91 0
89 -90 -91 0
-64 65 0
-64 89 0
64 -65 -89 0
-93 30 0
93 -30 0
-94 59 0
94 -59 0
-92 93 0
-92 94 0
92 -93 -94 0
-63 64 0
-63 92 0
63 -64 -92 0
3 -4 0
3 -63 0
-3 4 63 0
-100 92 0
100 -92 0
-101 89 0
101 -89 0
-99 100 0
-99 101 0
99 -100 -101 0
-102 3 0
102 -3 0
98 -99 0
98 -102 0
-98 99 102 0
-109 84 0
109 -84 0
-110 17 0
110 -17 0
-108 109 0
-108 110 0
108 -109 -110 0
-112 89 0
112 -89 0
-113 25 0
113 -25 0
-111 112 0
-111 113 0
111 -112 -113 0
107 -108 0
107 -111 0
-107 108 111 0
-115 79 0
115 -79 0
-116 30 0
116 -30 0
-114 115 0
-114 116 0
114 -115 -116 0
106 -107 0
106 -114 0
-106 107 114 0
-118 76 0
118 -76 0
-119 20 0
119 -20 0
-117 118 0
-117 119 0
117 -118 -119 0
105 -106 0
105 -117 0
-105 106 117 0
-121 79 0
121 -79 0
-122 25 0
122 -25 0
-120 121 0
-120 122 0
120 -121 -122 0
104 -105 0
104 -120 0
-104 105 120 0
-124 68 0
124 -68 0
-125 17 0
125 -17 0
-123 124 0
-123 125 0
123 -124 -125 0
103 -104 0
103 -123 0
-103 104 123 0
-97 98 0
-97 103 0
97 -98 -103 0
-127 98 0
127 -98 0
-134 84 0
134 -84 0
-135 46 0
135 -46 0
-133 134 0
-133 135 0
133 -134 -135 0
-137 89 0
137 -89 0
-138 54 0
138 -54 0
-136 137 0
-136 138 0
136 -137 -138 0
132 -133 0
132 -136 0
-132 133 136 0
-140 79 0
140 -79 0
-141 59 0
141 -59 0
-139 140 0
-139 141 0
139 -140 -141 0
131 -132 0
131 -139 0
-131 132 139 0
-143 76 0
143 -76 0
-144 49 0
144 -49 0
-142 143 0
-142 144 0
142 -143 -144 0
130 -131 0
130 -142 0
-130 131 142 0
-146 79 0
146 -79 0
-147 54 0
147 -54 0
-145 146 0
-145 147 0
145 -146 -147 0
129 -130 0
129 -145 0
-129 130 145 0
-149 68 0
149 -68 0
-150 46 0
150 -46 0
-148 149 0
-148 150 0
148 -149 -150 0
128 -129 0
128 -148 0
-128 129 148 0
-126 127 0
-126 128 0
126 -127 -128 0
96 -97 0
96 -126 0
-96 97 126 0
-152 98 0
152 -98 0
-159 84 0
159 -84 0
-160 76 0
160 -76 0
-158 159 0
-158 160 0
158 -159 -160 0
-162 89 0
162 -89 0
-163 84 0
163 -84 0
-161 162 0
-161 163 0
161 -162 -163 0
157 -158 0
157 -161 0
-157 158 161 0
-165 79 0
165 -79 0
-166 89 0
166 -89 0
-164 165 0
-164 166 0
164 -165 -166 0
156 -157 0
156 -164 0
-156 157 164 0
-168 76 0
168 -76 0
-169 79 0
169 -79 0
-167 168 0
-167 169 0
167 -168 -169 0
155 -156 0
155 -167 0
-155 156 167 0
-171 79 0
171 -79 0
-172 84 0
172 -84 0
-170 171 0
-170 172 0
170 -171 -172 0
154 -155 0
154 -170 0
-154 155 170 0
-174 68 0
174 -68 0
-175 76 0
175 -76 0
-173 174 0
-173 175 0
173 -174 -175 0
153 -154 0
153 -173 0
-153 154 173 0
-151 152 0
-151 153 0
151 -152 -153 0
95 -96 0
95 -151 0
-95 96 151 0
2 -3 0
2 -95 0
-2 3 95 0
-184 25 0
184 -25 0
-185 46 0
185 -46 0
-183 184 0
-183 185 0
183 -184 -185 0
-187 30 0
187 -30 0
-188 54 0
188 -54 0
-186 187 0
-186 188 0
186 -187 -188 0
182 -183 0
182 -186 0
-182 183 186 0
-190 20 0
190 -20 0
-191 59 0
191 -59 0
-189 190 0
-189 191 0
189 -190 -191 0
181 -182 0
181 -189 0
-181 182 189 0
-193 17 0
193 -17 0
-194 49 0
194 -49 0
-192 193 0
-192 194 0
192 -193 -194 0
180 -181 0
180 -192 0
-180 181 192 0
-196 20 0
196 -20 0
-197 54 0
197 -54 0
-195 196 0
-195 197 0
195 -196 -197 0
179 -180 0
179 -195 0
-179 180 195 0
-199 9 0
199 -9 0
-200 46 0
200 -46 0
-198 199 0
-198 200 0
198 -199 -200 0
178 -179 0
178 -198 0
-178 179 198 0
-207 54 0
207 -54 0
-208 76 0
208 -76 0
-206 207 0
-206 208 0
206 -207 -208 0
-210 59 0
210 -59 0
-211 84 0
211 -84 0
-209 210 0
-209 211 0
209 -210 -211 0
205 -206 0
205 -209 0
-205 206 209 0
-213 49 0
213 -49 0
-214 89 0
214 -89 0
-212 213 0
-212 214 0
212 -213 -214 0
204 -205 0
204 -212 0
-204 205 212 0
-216 46 0
216 -46 0
-217 79 0
217 -79 0
-215 216 0
-215 217 0
215 -216 -217 0
203 -204 0
203 -215 0
-203 204 215 0
-219 49 0
219 -49 0
-220 84 0
220 -84 0
-218 219 0
-218 220 0
218 -219 -220 0
202 -203 0
202 -218 0
-202 203 218 0
-222 38 0
222 -38 0
-223 76 0
223 -76 0
-221 222 0
-221 223 0
221 -222 -223 0
201 -202 0
201 -221 0
-201 202 221 0
-177 178 0
-177 201 0
177 -178 -201 0
-224 9 0
224 -9 0
-176 177 0
-176 224 0
176 -177 -224 0
-1 2 0
-1 176 0
1 -2 -176 0
